p tw 283 320
1 2
2 113
3 14
4 5
5 6
6 7
7 8
8 9
9 10
10 11
10 12
11 204
12 13
13 15
13 16
14 25
15 16
16 17
17 18
18 19
19 20
20 21
21 22
21 27
22 23
23 24
24 26
25 36
26 27
26 30
27 28
28 29
29 204
30 31
31 32
32 33
33 34
34 35
35 37
36 47
37 38
37 74
38 39
39 40
40 41
41 42
42 43
43 44
44 45
45 46
46 48
47 58
48 49
49 50
50 51
51 52
51 44
52 53
53 54
54 55
54 59
55 56
56 57
57 74
58 69
59 60
60 61
61 62
62 63
63 64
64 65
65 66
66 67
67 68
68 70
69 80
70 71
70 63
71 72
72 73
73 74
73 40
74 75
75 76
75 81
76 77
77 78
78 79
79 204
80 91
81 82
82 83
82 84
83 84
84 85
85 86
86 87
87 88
88 89
89 90
90 92
91 102
92 93
93 94
94 95
95 96
96 97
97 98
98 99
98 172
99 100
100 101
101 103
102 114
103 104
104 105
105 106
105 172
106 107
107 108
107 116
108 109
109 110
110 111
111 112
112 115
113 207
114 125
115 116
115 172
116 117
117 118
118 119
119 120
120 121
121 122
122 123
123 124
124 126
125 136
125 180
126 127
127 128
128 129
129 130
130 131
131 132
132 133
132 126
133 134
133 97
134 135
135 137
136 147
137 138
137 144
138 139
139 140
140 141
140 144
141 142
142 143
143 144
143 97
144 145
145 146
146 148
147 158
148 149
149 150
150 151
151 152
152 153
153 154
154 155
154 148
155 156
156 157
157 159
158 169
158 180
159 160
160 161
161 162
162 163
163 164
163 167
164 165
165 166
166 172
167 168
168 170
169 204
170 171
171 97
172 173
173 174
174 175
175 176
176 177
176 179
177 178
178 187
179 181
180 191
181 182
181 185
182 183
182 185
183 184
184 187
185 186
186 187
187 188
188 189
188 201
189 190
189 201
190 192
190 201
191 202
192 193
193 194
194 195
195 196
196 197
197 198
198 199
199 200
200 201
201 203
202 206
203 204
204 205
206 208
206 210
207 218
208 209
209 210
210 211
211 212
211 215
212 213
213 214
214 215
215 216
216 217
217 219
218 229
219 220
220 221
221 222
222 223
223 224
224 225
224 226
225 204
226 227
227 228
228 230
229 240
230 231
231 232
232 233
233 234
234 235
235 236
236 237
237 238
238 239
238 243
239 241
240 251
240 262
241 242
242 204
243 244
244 245
245 246
246 247
247 248
248 249
248 263
249 250
250 252
251 204
252 253
253 254
254 255
255 256
256 257
257 258
258 259
259 260
260 261
261 263
262 273
263 264
264 265
265 266
266 267
267 268
268 269
269 270
270 271
271 272
272 274
273 3
274 275
275 276
275 16
276 277
276 16
277 278
278 279
279 280
280 281
281 282
282 283
283 4
